<instance format="XCSP3" type="CSP">
  <variables>
    <var id="x0"> 6 9 </var>
    <var id="x1"> 4 9 12 15 </var>
    <var id="x2"> 1 4 9 15 17 </var>
    <var id="x3"> 1 12 15 17 </var>
    <var id="x4"> 1 4 9 12 </var>
    <var id="x5"> 1 4 9 12 15 </var>
    <var id="x6"> 9 12 17 </var>
    <var id="x7"> 3 4 9 11 </var>
    <var id="x8"> 3 4 14 17 </var>
    <var id="x9"> 3 4 9 11 17 </var>
    <var id="x10"> 1 2 4 9 17 </var>
    <var id="x11"> 1 2 11 17 </var>
    <var id="x12"> 1..4 9 11 </var>
    <var id="x13"> 1 2 4 11 14 </var>
    <var id="x14"> 1 4 9 </var>
    <var id="x15"> 1 6 11 </var>
    <var id="x16"> 0..2 10 11 </var>
    <var id="x17"> 0 9 13 </var>
    <var id="x18"> 0..2 13 </var>
    <var id="x19"> 1 2 9 10 </var>
    <var id="x20"> 1 2 6 13 </var>
    <var id="x21"> 1 2 9 11 </var>
    <var id="x22"> 2 9 10 </var>
    <var id="x23"> 3..5 12 14 </var>
    <var id="x24"> 2 3 10 </var>
    <var id="x25"> 4 5 14 </var>
    <var id="x26"> 2 3 13 </var>
    <var id="x27"> 2 10 12 13 </var>
    <var id="x28"> 2 4 5 13 14 </var>
    <var id="x29"> 2 4 10 12 </var>
    <var id="x30"> 2 3 10 12 </var>
    <var id="x31"> 3 5 </var>
    <var id="x32"> 5 </var>
    <var id="x33"> 2 7 </var>
    <var id="x34"> 2 3 7 13 17 </var>
    <var id="x35"> 2 13 17 </var>
    <var id="x36"> 9 13 </var>
    <var id="x37"> 2 9 17 </var>
    <var id="x38"> 4 5 </var>
    <var id="x39"> 2 7 10 11 </var>
    <var id="x40"> 2 5 13 </var>
    <var id="x41"> 2 4 7 11 </var>
    <var id="x42"> 4 8 13 </var>
    <var id="x43"> 2 4 10 </var>
    <var id="x44"> 2 10 11 </var>
    <var id="x45"> 2 10 13 </var>
    <var id="x46"> 1 3 11 12 14 </var>
    <var id="x47"> 3 9 11 </var>
    <var id="x48"> 1 11 </var>
    <var id="x49"> 1 3 13 15 </var>
    <var id="x50"> 1 12..15 </var>
    <var id="x51"> 1 3 9 11 12 </var>
    <var id="x52"> 1 9 12 13 15 </var>
    <var id="x53"> 9 12 15 </var>
    <var id="x54"> 3 11 13 </var>
    <var id="x55"> 2 3 10 11 </var>
    <var id="x56"> 0 </var>
    <var id="x57"> 0 2 3 13 </var>
    <var id="x58"> 2 10..13 </var>
    <var id="x59"> 2 3 11 12 </var>
    <var id="x60"> 2 11 13 </var>
    <var id="x61"> 2 3 10 13 16 </var>
    <var id="x62"> 4 6 17 </var>
    <var id="x63"> 1 4 6 </var>
    <var id="x64"> 4 9 17 </var>
    <var id="x65"> 4 9 13 15 </var>
    <var id="x66"> 1 2 4 9 15 17 </var>
    <var id="x67"> 1 2 4 13 15 </var>
    <var id="x68"> 2 4 9 15 17 </var>
    <var id="x69"> 2 6 13 17 </var>
    <var id="x70"> 3 4 13 15 </var>
    <var id="x71"> 1 3..5 </var>
    <var id="x72"> 1 4 5 15 </var>
    <var id="x73"> 3 4 16 </var>
    <var id="x74"> 3 4 13 15 16 </var>
    <var id="x75"> 1 2 5 13 15 </var>
    <var id="x76"> 1 2 4 5 13 15 </var>
    <var id="x77"> 2 3 13 16 </var>
    <var id="x78"> 3 4 15 </var>
    <var id="x79"> 3..5 17 </var>
    <var id="x80"> 3..5 12 </var>
    <var id="x81"> 2 4 10 15 17 </var>
    <var id="x82"> 2 5 12 15 </var>
    <var id="x83"> 2..4 12 </var>
    <var id="x84"> 4 12 15 </var>
    <var id="x85"> 2 4 10 12 15 17 </var>
    <var id="x86"> 2 7 8 </var>
    <var id="x87"> 0 4 12 16 </var>
    <var id="x88"> 0 4 12 15 16 </var>
    <var id="x89"> 0 2 7 15 </var>
    <var id="x90"> 2 4 8 15 </var>
    <var id="x91"> 2 4 15 </var>
    <var id="x92"> 4 8 12 15 16 </var>
    <var id="x93"> 2 12 16 </var>
    <var id="x94"> 4 9 11 15 </var>
    <var id="x95"> 4 11 12 14 </var>
    <var id="x96"> 8 9 11 </var>
    <var id="x97"> 4 8 14 15 </var>
    <var id="x98"> 4 9 12 15 16 </var>
    <var id="x99"> 4 8 9 15 </var>
    <var id="x100"> 11 12 15 </var>
    <var id="x101"> 14 16 </var>
    <var id="x102"> 3 6 7 11 </var>
    <var id="x103"> 3 6 16 17 </var>
    <var id="x104"> 3 11 12 16 17 </var>
    <var id="x105"> 2 7 11 16 </var>
    <var id="x106"> 2 6 12 </var>
    <var id="x107"> 2 11 12 17 </var>
    <var id="x108"> 2 3 11 12 16 17 </var>
    <var id="x109"> 2 3 6 16 17 </var>
    <var id="x110"> 0 1 4 15 </var>
    <var id="x111"> 0 3 4 16 17 </var>
    <var id="x112"> 0 3 4 15 16 </var>
    <var id="x113"> 0 1 3 15 17 </var>
    <var id="x114"> 1 4 15 </var>
    <var id="x115"> 1 4 15 16 </var>
    <var id="x116"> 3 16 17 </var>
    <var id="x117"> 3 6 16 17 </var>
    <var id="x118"> 3 4 6 9 15 </var>
    <var id="x119"> 0 3 4 6 </var>
    <var id="x120"> 3 6 9 10 </var>
    <var id="x121"> 0 1 10 </var>
    <var id="x122"> 0 3 4 9 15 </var>
    <var id="x123"> 1 6 15 </var>
    <var id="x124"> 1 3 4 9 </var>
    <var id="x125"> 1 4 15 </var>
    <var id="x126"> 7 9 11 </var>
    <var id="x127"> 0 14 17 </var>
    <var id="x128"> 7..9 11 </var>
    <var id="x129"> 0 9 11 17 </var>
    <var id="x130"> 0 1 7 11 </var>
    <var id="x131"> 1 8 9 17 </var>
    <var id="x132"> 1 11 17 </var>
    <var id="x133"> 9 11 17 </var>
    <var id="x134"> 14 16 </var>
    <var id="x135"> 1 14 15 </var>
    <var id="x136"> 11 12 16 </var>
    <var id="x137"> 1 15 </var>
    <var id="x138"> 1 12 14 15 </var>
    <var id="x139"> 10..12 16 </var>
    <var id="x140"> 10 14 16 </var>
  </variables>
  <constraints>
    <group>
      <allDifferent> %... </allDifferent>
      <args> x0 x1 x2 x3 x4 x5 x6 </args>
      <args> x7 x8 x9 x10 x11 x12 x13 x14 </args>
      <args> x15 x16 x17 x18 x19 x20 x21 x22 </args>
      <args> x23 x24 x25 x26 x27 x28 x29 x30 </args>
      <args> x31 x32 x33 x34 x35 x36 x37 </args>
      <args> x38 x39 x40 x41 x42 x43 x44 x45 </args>
      <args> x46 x47 x48 x49 x50 x51 x52 x53 </args>
      <args> x54 x55 x56 x57 x58 x59 x60 x61 </args>
      <args> x62 x63 x64 x65 x66 x67 x68 x69 </args>
      <args> x70 x71 x72 x73 x74 x75 x76 x77 </args>
      <args> x78 x79 x80 x81 x82 x83 x84 x85 </args>
      <args> x86 x87 x88 x89 x90 x91 x92 x93 </args>
      <args> x94 x95 x96 x97 x98 x99 x100 x101 </args>
      <args> x102 x103 x104 x105 x106 x107 x108 x109 </args>
      <args> x110 x111 x112 x113 x114 x115 x116 x117 </args>
      <args> x118 x119 x120 x121 x122 x123 x124 x125 </args>
      <args> x126 x127 x128 x129 x130 x131 x132 x133 </args>
      <args> x134 x135 x136 x137 x138 x139 x140 </args>
      <args> x7 x54 x70 x78 x94 x102 x118 x126 </args>
      <args> x8 x38 x62 x79 x103 x119 x127 x134 </args>
      <args> x15 x23 x31 x46 x63 x71 x80 x95 </args>
      <args> x0 x24 x47 x55 x86 x96 x120 x128 </args>
      <args> x25 x32 x56 x72 x97 x110 x135 </args>
      <args> x9 x64 x73 x87 x104 x111 x129 x136 </args>
      <args> x16 x33 x39 x48 x105 x121 x130 </args>
      <args> x1 x17 x65 x74 x88 x98 x112 x122 </args>
      <args> x18 x26 x34 x49 x57 x89 x113 x137 </args>
      <args> x2 x10 x19 x66 x81 x90 x99 x131 </args>
      <args> x20 x40 x50 x75 x82 x106 x123 x138 </args>
      <args> x3 x11 x27 x35 x58 x100 x107 x132 </args>
      <args> x4 x12 x21 x41 x51 x59 x83 x124 </args>
      <args> x13 x28 x60 x67 x76 x91 x114 x125 </args>
      <args> x5 x14 x36 x42 x52 x84 x92 x115 </args>
      <args> x22 x29 x37 x43 x53 x68 x85 </args>
      <args> x6 x30 x44 x93 x108 x116 x133 x139 </args>
      <args> x45 x61 x69 x77 x101 x109 x117 x140 </args>
    </group>
  </constraints>
</instance>

